100 10
340 182
250 403
633 279
436 432
439 766
744 674
537 394
190 846
280 305
360 320
284 662
727 468
600 172
132 422
834 99
100 419
748 620
506 701
571 136
585 565
739 348
280 148
512 244
573 556
476 655
628 517
195 643
412 446
498 711
328 806
935 535
521 698
342 765
226 392
554 731
757 28
849 523
675 148
282 430
245 677
88 472
379 667
397 580
689 406
579 764
309 109
256 55
853 341
807 251
300 409
829 411
434 501
849 817
563 290
131 822
783 556
538 708
406 331
322 381
259 409
431 426
324 556
355 415
542 261
859 394
430 495
718 380
233 386
497 471
614 620
396 164
397 589
151 758
496 707
675 97
365 558
417 320
516 199
616 279
500 714
351 372
379 234
518 711
519 390
772 403
770 231
358 634
100 388
510 380
214 559
418 780
723 713
868 194
732 289
630 404
575 658
541 580
611 478
217 379
454 470
